(set-logic BV) (define-fun origCir ((n184 Bool) (n152 Bool) (n116 Bool) (n178 Bool) (n103 Bool) (n165 Bool)) Bool (and n184 (and (and (and n178 n103) (and n116 n152)) n165))) (synth-fun skel ((n184 Bool) (n152 Bool) (n116 Bool) (n178 Bool) (n103 Bool) (n165 Bool)) Bool) (declare-var n184 Bool) (declare-var n152 Bool) (declare-var n116 Bool) (declare-var n178 Bool) (declare-var n103 Bool) (declare-var n165 Bool) (constraint (= (origCir n184 n152 n116 n178 n103 n165) (skel n184 n152 n116 n178 n103 n165))) (check-synth)
